p cnf 1254 2958
1 0
2 0
3 0
4 0
5 0
6 0
7 0
8 0
9 0
10 0
11 0
12 0
13 0
14 0
15 0
16 0
17 0
18 0
19 0
20 0
21 0
22 0
23 0
-24 0
-25 0
-26 0
-27 0
-28 0
-29 0
-30 0
-31 0
-32 0
-33 0
-34 0
-35 0
-36 0
-37 0
-38 0
-39 0
-40 0
-41 0
-42 0
-43 0
-44 0
-45 0
-46 0
-47 0
-48 0
49 50 0
51 50 0
52 50 0
-49 -51 -52 -50 0
-1 50 -53 0
1 -50 -53 0
53 -50 -1 0
1 50 53 0
-53 0
51 54 0
52 54 0
-51 -52 -54 0
-2 54 -55 0
2 -54 -55 0
55 -54 -2 0
2 54 55 0
-55 0
56 -52 0
52 -56 0
57 58 0
59 58 0
60 58 0
61 58 0
62 58 0
63 58 0
-64 0
-3 58 -65 0
3 -58 -65 0
65 -58 -3 0
3 58 65 0
-65 0
59 66 0
60 66 0
61 66 0
62 66 0
63 66 0
-67 0
-68 66 -69 0
68 -66 -69 0
69 -66 -68 0
68 66 69 0
-69 0
60 70 0
61 70 0
62 70 0
63 70 0
-71 0
-4 70 -72 0
4 -70 -72 0
72 -70 -4 0
4 70 72 0
-72 0
-5 70 -73 0
5 -70 -73 0
73 -70 -5 0
5 70 73 0
-73 0
-74 70 -75 0
74 -70 -75 0
75 -70 -74 0
74 70 75 0
-75 0
-6 70 -76 0
6 -70 -76 0
76 -70 -6 0
6 70 76 0
-76 0
60 77 0
61 77 0
62 77 0
63 77 0
78 77 0
-79 0
-7 77 -80 0
7 -77 -80 0
80 -77 -7 0
7 77 80 0
-80 0
81 82 0
83 82 0
84 82 0
85 82 0
86 82 0
87 82 0
-88 0
-8 82 -89 0
8 -82 -89 0
89 -82 -8 0
8 82 89 0
-89 0
83 90 0
84 90 0
85 90 0
86 90 0
87 90 0
-91 0
-92 90 -93 0
92 -90 -93 0
93 -90 -92 0
92 90 93 0
-93 0
84 94 0
85 94 0
86 94 0
87 94 0
-95 0
-96 94 -97 0
96 -94 -97 0
97 -94 -96 0
96 94 97 0
-97 0
-98 94 -99 0
98 -94 -99 0
99 -94 -98 0
98 94 99 0
-99 0
-100 94 -101 0
100 -94 -101 0
101 -94 -100 0
100 94 101 0
-101 0
-102 94 -103 0
102 -94 -103 0
103 -94 -102 0
102 94 103 0
-103 0
60 104 0
61 104 0
62 104 0
63 104 0
78 104 0
105 104 0
-106 0
-9 104 -107 0
9 -104 -107 0
107 -104 -9 0
9 104 107 0
-107 0
84 108 0
85 108 0
86 108 0
87 108 0
109 108 0
110 108 0
111 108 0
-112 0
-10 108 -113 0
10 -108 -113 0
113 -108 -10 0
10 108 113 0
-113 0
84 114 0
85 114 0
86 114 0
87 114 0
110 114 0
111 114 0
-115 0
-116 114 -117 0
116 -114 -117 0
117 -114 -116 0
116 114 117 0
-117 0
84 118 0
85 118 0
86 118 0
87 118 0
111 118 0
-119 0
-120 118 -121 0
120 -118 -121 0
121 -118 -120 0
120 118 121 0
-121 0
60 122 0
61 122 0
62 122 0
63 122 0
123 122 0
-124 0
-11 122 -125 0
11 -122 -125 0
125 -122 -11 0
11 122 125 0
-125 0
52 126 0
127 126 0
128 126 0
-52 -127 -128 -126 0
-12 126 -129 0
12 -126 -129 0
129 -126 -12 0
12 126 129 0
-129 0
52 130 0
128 130 0
-52 -128 -130 0
-131 130 -132 0
131 -130 -132 0
132 -130 -131 0
131 130 132 0
-132 0
84 133 0
85 133 0
86 133 0
87 133 0
134 133 0
135 133 0
-136 0
-13 133 -137 0
13 -133 -137 0
137 -133 -13 0
13 133 137 0
-137 0
84 138 0
85 138 0
86 138 0
87 138 0
135 138 0
-139 0
-140 138 -141 0
140 -138 -141 0
141 -138 -140 0
140 138 141 0
-141 0
142 143 0
144 143 0
145 143 0
146 143 0
147 143 0
-148 0
-14 143 -149 0
14 -143 -149 0
149 -143 -14 0
14 143 149 0
-149 0
144 150 0
145 150 0
146 150 0
147 150 0
-151 0
-152 150 -153 0
152 -150 -153 0
153 -150 -152 0
152 150 153 0
-153 0
145 154 0
146 154 0
147 154 0
-145 -146 -147 -154 0
-155 154 -156 0
155 -154 -156 0
156 -154 -155 0
155 154 156 0
-156 0
-157 154 -158 0
157 -154 -158 0
158 -154 -157 0
157 154 158 0
-158 0
-159 154 -160 0
159 -154 -160 0
160 -154 -159 0
159 154 160 0
-160 0
60 161 0
61 161 0
62 161 0
63 161 0
78 161 0
162 161 0
163 161 0
-164 0
-15 161 -165 0
15 -161 -165 0
165 -161 -15 0
15 161 165 0
-165 0
60 166 0
61 166 0
62 166 0
63 166 0
78 166 0
163 166 0
-167 0
-168 166 -169 0
168 -166 -169 0
169 -166 -168 0
168 166 169 0
-169 0
51 170 0
52 170 0
171 170 0
172 170 0
-173 0
-16 170 -174 0
16 -170 -174 0
174 -170 -16 0
16 170 174 0
-174 0
51 175 0
52 175 0
172 175 0
-51 -52 -172 -175 0
-176 175 -177 0
176 -175 -177 0
177 -175 -176 0
176 175 177 0
-177 0
178 179 0
180 179 0
181 179 0
182 179 0
183 179 0
184 179 0
-185 0
-17 179 -186 0
17 -179 -186 0
186 -179 -17 0
17 179 186 0
-186 0
180 187 0
181 187 0
182 187 0
183 187 0
184 187 0
-188 0
-189 187 -190 0
189 -187 -190 0
190 -187 -189 0
189 187 190 0
-190 0
181 191 0
182 191 0
183 191 0
184 191 0
-192 0
-193 191 -194 0
193 -191 -194 0
194 -191 -193 0
193 191 194 0
-194 0
-195 191 -196 0
195 -191 -196 0
196 -191 -195 0
195 191 196 0
-196 0
-197 191 -198 0
197 -191 -198 0
198 -191 -197 0
197 191 198 0
-198 0
-199 191 -200 0
199 -191 -200 0
200 -191 -199 0
199 191 200 0
-200 0
201 202 0
203 202 0
204 202 0
205 202 0
206 202 0
207 202 0
-208 0
-18 202 -209 0
18 -202 -209 0
209 -202 -18 0
18 202 209 0
-209 0
203 210 0
204 210 0
205 210 0
206 210 0
207 210 0
-211 0
-212 210 -213 0
212 -210 -213 0
213 -210 -212 0
212 210 213 0
-213 0
204 214 0
205 214 0
206 214 0
207 214 0
-215 0
-216 214 -217 0
216 -214 -217 0
217 -214 -216 0
216 214 217 0
-217 0
205 218 0
206 218 0
207 218 0
-205 -206 -207 -218 0
-219 218 -220 0
219 -218 -220 0
220 -218 -219 0
219 218 220 0
-220 0
-221 218 -222 0
221 -218 -222 0
222 -218 -221 0
221 218 222 0
-222 0
-223 218 -224 0
223 -218 -224 0
224 -218 -223 0
223 218 224 0
-224 0
205 225 0
206 225 0
207 225 0
226 225 0
227 225 0
-228 0
-19 225 -229 0
19 -225 -229 0
229 -225 -19 0
19 225 229 0
-229 0
205 230 0
206 230 0
207 230 0
227 230 0
-231 0
-232 230 -233 0
232 -230 -233 0
233 -230 -232 0
232 230 233 0
-233 0
181 234 0
182 234 0
183 234 0
184 234 0
235 234 0
-236 0
-20 234 -237 0
20 -234 -237 0
237 -234 -20 0
20 234 237 0
-237 0
205 238 0
206 238 0
207 238 0
227 238 0
239 238 0
-240 0
-21 238 -241 0
21 -238 -241 0
241 -238 -21 0
21 238 241 0
-241 0
60 242 0
61 242 0
62 242 0
63 242 0
243 242 0
-244 0
-22 242 -245 0
22 -242 -245 0
245 -242 -22 0
22 242 245 0
-245 0
205 246 0
206 246 0
207 246 0
247 246 0
248 246 0
249 246 0
-250 0
-23 246 -251 0
23 -246 -251 0
251 -246 -23 0
23 246 251 0
-251 0
205 252 0
206 252 0
207 252 0
248 252 0
249 252 0
-253 0
-254 252 -255 0
254 -252 -255 0
255 -252 -254 0
254 252 255 0
-255 0
205 256 0
206 256 0
207 256 0
249 256 0
-257 0
-258 256 -259 0
258 -256 -259 0
259 -256 -258 0
258 256 259 0
-259 0
260 261 0
262 261 0
263 261 0
264 261 0
265 261 0
266 261 0
-267 0
-24 261 -268 0
24 -261 -268 0
268 -261 -24 0
24 261 268 0
-268 0
262 269 0
263 269 0
264 269 0
265 269 0
266 269 0
-270 0
-271 269 -272 0
271 -269 -272 0
272 -269 -271 0
271 269 272 0
-272 0
263 273 0
264 273 0
265 273 0
266 273 0
-274 0
-275 273 -276 0
275 -273 -276 0
276 -273 -275 0
275 273 276 0
-276 0
-277 273 -278 0
277 -273 -278 0
278 -273 -277 0
277 273 278 0
-278 0
-279 273 -280 0
279 -273 -280 0
280 -273 -279 0
279 273 280 0
-280 0
-281 273 -282 0
281 -273 -282 0
282 -273 -281 0
281 273 282 0
-282 0
283 284 0
285 284 0
286 284 0
287 284 0
288 284 0
289 284 0
-290 0
-25 284 -291 0
25 -284 -291 0
291 -284 -25 0
25 284 291 0
-291 0
285 292 0
286 292 0
287 292 0
288 292 0
289 292 0
-293 0
-294 292 -295 0
294 -292 -295 0
295 -292 -294 0
294 292 295 0
-295 0
286 296 0
287 296 0
288 296 0
289 296 0
-297 0
-298 296 -299 0
298 -296 -299 0
299 -296 -298 0
298 296 299 0
-299 0
287 300 0
288 300 0
289 300 0
-287 -288 -289 -300 0
-301 300 -302 0
301 -300 -302 0
302 -300 -301 0
301 300 302 0
-302 0
288 303 0
289 303 0
-288 -289 -303 0
-304 303 -305 0
304 -303 -305 0
305 -303 -304 0
304 303 305 0
-305 0
-306 303 -307 0
306 -303 -307 0
307 -303 -306 0
306 303 307 0
-307 0
308 309 0
310 309 0
311 309 0
312 309 0
313 309 0
314 309 0
-315 0
-26 309 -316 0
26 -309 -316 0
316 -309 -26 0
26 309 316 0
-316 0
310 317 0
311 317 0
312 317 0
313 317 0
314 317 0
-318 0
-319 317 -320 0
319 -317 -320 0
320 -317 -319 0
319 317 320 0
-320 0
311 321 0
312 321 0
313 321 0
314 321 0
-322 0
-323 321 -324 0
323 -321 -324 0
324 -321 -323 0
323 321 324 0
-324 0
312 325 0
313 325 0
314 325 0
-312 -313 -314 -325 0
-326 325 -327 0
326 -325 -327 0
327 -325 -326 0
326 325 327 0
-327 0
-328 325 -329 0
328 -325 -329 0
329 -325 -328 0
328 325 329 0
-329 0
-330 325 -331 0
330 -325 -331 0
331 -325 -330 0
330 325 331 0
-331 0
332 333 0
334 333 0
335 333 0
336 333 0
337 333 0
338 333 0
339 333 0
340 333 0
-341 0
-27 333 -342 0
27 -333 -342 0
342 -333 -27 0
27 333 342 0
-342 0
334 343 0
335 343 0
336 343 0
337 343 0
338 343 0
339 343 0
340 343 0
-344 0
-345 343 -346 0
345 -343 -346 0
346 -343 -345 0
345 343 346 0
-346 0
335 347 0
336 347 0
337 347 0
338 347 0
339 347 0
340 347 0
-348 0
-349 347 -350 0
349 -347 -350 0
350 -347 -349 0
349 347 350 0
-350 0
336 351 0
337 351 0
338 351 0
339 351 0
340 351 0
-352 0
-353 351 -354 0
353 -351 -354 0
354 -351 -353 0
353 351 354 0
-354 0
337 355 0
338 355 0
339 355 0
340 355 0
-356 0
-357 355 -358 0
357 -355 -358 0
358 -355 -357 0
357 355 358 0
-358 0
-359 355 -360 0
359 -355 -360 0
360 -355 -359 0
359 355 360 0
-360 0
-361 355 -362 0
361 -355 -362 0
362 -355 -361 0
361 355 362 0
-362 0
-363 355 -364 0
363 -355 -364 0
364 -355 -363 0
363 355 364 0
-364 0
288 365 0
289 365 0
366 365 0
367 365 0
-368 0
-28 365 -369 0
28 -365 -369 0
369 -365 -28 0
28 365 369 0
-369 0
288 370 0
289 370 0
367 370 0
-288 -289 -367 -370 0
-371 370 -372 0
371 -370 -372 0
372 -370 -371 0
371 370 372 0
-372 0
373 374 0
375 374 0
376 374 0
377 374 0
378 374 0
-379 0
-29 374 -380 0
29 -374 -380 0
380 -374 -29 0
29 374 380 0
-380 0
375 381 0
376 381 0
377 381 0
378 381 0
-382 0
-383 381 -384 0
383 -381 -384 0
384 -381 -383 0
383 381 384 0
-384 0
376 385 0
377 385 0
378 385 0
-376 -377 -378 -385 0
-386 385 -387 0
386 -385 -387 0
387 -385 -386 0
386 385 387 0
-387 0
-388 385 -389 0
388 -385 -389 0
389 -385 -388 0
388 385 389 0
-389 0
-390 385 -391 0
390 -385 -391 0
391 -385 -390 0
390 385 391 0
-391 0
392 393 0
394 393 0
395 393 0
396 393 0
397 393 0
-398 0
-30 393 -399 0
30 -393 -399 0
399 -393 -30 0
30 393 399 0
-399 0
394 400 0
395 400 0
396 400 0
397 400 0
-401 0
-402 400 -403 0
402 -400 -403 0
403 -400 -402 0
402 400 403 0
-403 0
395 404 0
396 404 0
397 404 0
-395 -396 -397 -404 0
-405 404 -406 0
405 -404 -406 0
406 -404 -405 0
405 404 406 0
-406 0
396 407 0
397 407 0
-396 -397 -407 0
-408 407 -409 0
408 -407 -409 0
409 -407 -408 0
408 407 409 0
-409 0
-410 407 -411 0
410 -407 -411 0
411 -407 -410 0
410 407 411 0
-411 0
412 413 0
414 413 0
415 413 0
416 413 0
417 413 0
-418 0
-31 413 -419 0
31 -413 -419 0
419 -413 -31 0
31 413 419 0
-419 0
414 420 0
415 420 0
416 420 0
417 420 0
-421 0
-422 420 -423 0
422 -420 -423 0
423 -420 -422 0
422 420 423 0
-423 0
415 424 0
416 424 0
417 424 0
-415 -416 -417 -424 0
-425 424 -426 0
425 -424 -426 0
426 -424 -425 0
425 424 426 0
-426 0
-427 424 -428 0
427 -424 -428 0
428 -424 -427 0
427 424 428 0
-428 0
-429 424 -430 0
429 -424 -430 0
430 -424 -429 0
429 424 430 0
-430 0
52 431 0
128 431 0
432 431 0
433 431 0
-434 0
-32 431 -435 0
32 -431 -435 0
435 -431 -32 0
32 431 435 0
-435 0
52 436 0
128 436 0
433 436 0
-52 -128 -433 -436 0
-437 436 -438 0
437 -436 -438 0
438 -436 -437 0
437 436 438 0
-438 0
439 440 0
441 440 0
442 440 0
443 440 0
444 440 0
-445 0
-33 440 -446 0
33 -440 -446 0
446 -440 -33 0
33 440 446 0
-446 0
441 447 0
442 447 0
443 447 0
444 447 0
-448 0
-449 447 -450 0
449 -447 -450 0
450 -447 -449 0
449 447 450 0
-450 0
442 451 0
443 451 0
444 451 0
-442 -443 -444 -451 0
-452 451 -453 0
452 -451 -453 0
453 -451 -452 0
452 451 453 0
-453 0
-454 451 -455 0
454 -451 -455 0
455 -451 -454 0
454 451 455 0
-455 0
-456 451 -457 0
456 -451 -457 0
457 -451 -456 0
456 451 457 0
-457 0
458 459 0
460 459 0
461 459 0
462 459 0
463 459 0
464 459 0
-465 0
-34 459 -466 0
34 -459 -466 0
466 -459 -34 0
34 459 466 0
-466 0
460 467 0
461 467 0
462 467 0
463 467 0
464 467 0
-468 0
-469 467 -470 0
469 -467 -470 0
470 -467 -469 0
469 467 470 0
-470 0
461 471 0
462 471 0
463 471 0
464 471 0
-472 0
-473 471 -474 0
473 -471 -474 0
474 -471 -473 0
473 471 474 0
-474 0
462 475 0
463 475 0
464 475 0
-462 -463 -464 -475 0
-476 475 -477 0
476 -475 -477 0
477 -475 -476 0
476 475 477 0
-477 0
-478 475 -479 0
478 -475 -479 0
479 -475 -478 0
478 475 479 0
-479 0
-480 475 -481 0
480 -475 -481 0
481 -475 -480 0
480 475 481 0
-481 0
482 483 0
484 483 0
485 483 0
486 483 0
487 483 0
-488 0
-35 483 -489 0
35 -483 -489 0
489 -483 -35 0
35 483 489 0
-489 0
484 490 0
485 490 0
486 490 0
487 490 0
-491 0
-492 490 -493 0
492 -490 -493 0
493 -490 -492 0
492 490 493 0
-493 0
485 494 0
486 494 0
487 494 0
-485 -486 -487 -494 0
-495 494 -496 0
495 -494 -496 0
496 -494 -495 0
495 494 496 0
-496 0
-497 494 -498 0
497 -494 -498 0
498 -494 -497 0
497 494 498 0
-498 0
-499 494 -500 0
499 -494 -500 0
500 -494 -499 0
499 494 500 0
-500 0
501 502 0
503 502 0
504 502 0
-501 -503 -504 -502 0
-36 502 -505 0
36 -502 -505 0
505 -502 -36 0
36 502 505 0
-505 0
503 506 0
504 506 0
-503 -504 -506 0
-507 506 -508 0
507 -506 -508 0
508 -506 -507 0
507 506 508 0
-508 0
509 -504 0
504 -509 0
510 511 0
512 511 0
513 511 0
514 511 0
515 511 0
516 511 0
517 511 0
518 511 0
-519 0
-37 511 -520 0
37 -511 -520 0
520 -511 -37 0
37 511 520 0
-520 0
512 521 0
513 521 0
514 521 0
515 521 0
516 521 0
517 521 0
518 521 0
-522 0
-523 521 -524 0
523 -521 -524 0
524 -521 -523 0
523 521 524 0
-524 0
513 525 0
514 525 0
515 525 0
516 525 0
517 525 0
518 525 0
-526 0
-527 525 -528 0
527 -525 -528 0
528 -525 -527 0
527 525 528 0
-528 0
514 529 0
515 529 0
516 529 0
517 529 0
518 529 0
-530 0
-531 529 -532 0
531 -529 -532 0
532 -529 -531 0
531 529 532 0
-532 0
515 533 0
516 533 0
517 533 0
518 533 0
-534 0
-535 533 -536 0
535 -533 -536 0
536 -533 -535 0
535 533 536 0
-536 0
-537 533 -538 0
537 -533 -538 0
538 -533 -537 0
537 533 538 0
-538 0
-539 533 -540 0
539 -533 -540 0
540 -533 -539 0
539 533 540 0
-540 0
-541 533 -542 0
541 -533 -542 0
542 -533 -541 0
541 533 542 0
-542 0
543 544 0
545 544 0
546 544 0
547 544 0
548 544 0
549 544 0
-550 0
-38 544 -551 0
38 -544 -551 0
551 -544 -38 0
38 544 551 0
-551 0
545 552 0
546 552 0
547 552 0
548 552 0
549 552 0
-553 0
-554 552 -555 0
554 -552 -555 0
555 -552 -554 0
554 552 555 0
-555 0
546 556 0
547 556 0
548 556 0
549 556 0
-557 0
-558 556 -559 0
558 -556 -559 0
559 -556 -558 0
558 556 559 0
-559 0
547 560 0
548 560 0
549 560 0
-547 -548 -549 -560 0
-561 560 -562 0
561 -560 -562 0
562 -560 -561 0
561 560 562 0
-562 0
-563 560 -564 0
563 -560 -564 0
564 -560 -563 0
563 560 564 0
-564 0
-565 560 -566 0
565 -560 -566 0
566 -560 -565 0
565 560 566 0
-566 0
567 568 0
569 568 0
570 568 0
571 568 0
-572 0
-39 568 -573 0
39 -568 -573 0
573 -568 -39 0
39 568 573 0
-573 0
569 574 0
570 574 0
571 574 0
-569 -570 -571 -574 0
-575 574 -576 0
575 -574 -576 0
576 -574 -575 0
575 574 576 0
-576 0
570 577 0
571 577 0
-570 -571 -577 0
-578 577 -579 0
578 -577 -579 0
579 -577 -578 0
578 577 579 0
-579 0
-580 577 -581 0
580 -577 -581 0
581 -577 -580 0
580 577 581 0
-581 0
582 583 0
584 583 0
585 583 0
-582 -584 -585 -583 0
-40 583 -586 0
40 -583 -586 0
586 -583 -40 0
40 583 586 0
-586 0
584 587 0
585 587 0
-584 -585 -587 0
-588 587 -589 0
588 -587 -589 0
589 -587 -588 0
588 587 589 0
-589 0
-590 587 -591 0
590 -587 -591 0
591 -587 -590 0
590 587 591 0
-591 0
592 593 0
594 593 0
595 593 0
596 593 0
-597 0
-41 593 -598 0
41 -593 -598 0
598 -593 -41 0
41 593 598 0
-598 0
594 599 0
595 599 0
596 599 0
-594 -595 -596 -599 0
-600 599 -601 0
600 -599 -601 0
601 -599 -600 0
600 599 601 0
-601 0
595 602 0
596 602 0
-595 -596 -602 0
-603 602 -604 0
603 -602 -604 0
604 -602 -603 0
603 602 604 0
-604 0
-605 602 -606 0
605 -602 -606 0
606 -602 -605 0
605 602 606 0
-606 0
607 608 0
609 608 0
610 608 0
611 608 0
612 608 0
613 608 0
614 608 0
-615 0
-42 608 -616 0
42 -608 -616 0
616 -608 -42 0
42 608 616 0
-616 0
609 617 0
610 617 0
611 617 0
612 617 0
613 617 0
614 617 0
-618 0
-619 617 -620 0
619 -617 -620 0
620 -617 -619 0
619 617 620 0
-620 0
610 621 0
611 621 0
612 621 0
613 621 0
614 621 0
-622 0
-623 621 -624 0
623 -621 -624 0
624 -621 -623 0
623 621 624 0
-624 0
611 625 0
612 625 0
613 625 0
614 625 0
-626 0
-627 625 -628 0
627 -625 -628 0
628 -625 -627 0
627 625 628 0
-628 0
-629 625 -630 0
629 -625 -630 0
630 -625 -629 0
629 625 630 0
-630 0
-631 625 -632 0
631 -625 -632 0
632 -625 -631 0
631 625 632 0
-632 0
-633 625 -634 0
633 -625 -634 0
634 -625 -633 0
633 625 634 0
-634 0
635 636 0
637 636 0
638 636 0
639 636 0
640 636 0
-641 0
-43 636 -642 0
43 -636 -642 0
642 -636 -43 0
43 636 642 0
-642 0
637 643 0
638 643 0
639 643 0
640 643 0
-644 0
-645 643 -646 0
645 -643 -646 0
646 -643 -645 0
645 643 646 0
-646 0
638 647 0
639 647 0
640 647 0
-638 -639 -640 -647 0
-648 647 -649 0
648 -647 -649 0
649 -647 -648 0
648 647 649 0
-649 0
639 650 0
640 650 0
-639 -640 -650 0
-651 650 -652 0
651 -650 -652 0
652 -650 -651 0
651 650 652 0
-652 0
653 -640 0
640 -653 0
639 654 0
640 654 0
655 654 0
-639 -640 -655 -654 0
-44 654 -656 0
44 -654 -656 0
656 -654 -44 0
44 654 656 0
-656 0
657 658 0
659 658 0
288 658 0
289 658 0
-660 0
-45 658 -661 0
45 -658 -661 0
661 -658 -45 0
45 658 661 0
-661 0
659 662 0
288 662 0
289 662 0
-288 -289 -659 -662 0
-663 662 -664 0
663 -662 -664 0
664 -662 -663 0
663 662 664 0
-664 0
611 665 0
612 665 0
613 665 0
614 665 0
666 665 0
667 665 0
-668 0
-46 665 -669 0
46 -665 -669 0
669 -665 -46 0
46 665 669 0
-669 0
611 670 0
612 670 0
613 670 0
614 670 0
667 670 0
-671 0
-672 670 -673 0
672 -670 -673 0
673 -670 -672 0
672 670 673 0
-673 0
674 675 0
676 675 0
677 675 0
678 675 0
679 675 0
680 675 0
-681 0
-47 675 -682 0
47 -675 -682 0
682 -675 -47 0
47 675 682 0
-682 0
676 683 0
677 683 0
678 683 0
679 683 0
680 683 0
-684 0
-685 683 -686 0
685 -683 -686 0
686 -683 -685 0
685 683 686 0
-686 0
677 687 0
678 687 0
679 687 0
680 687 0
-688 0
-689 687 -690 0
689 -687 -690 0
690 -687 -689 0
689 687 690 0
-690 0
-691 687 -692 0
691 -687 -692 0
692 -687 -691 0
691 687 692 0
-692 0
-693 687 -694 0
693 -687 -694 0
694 -687 -693 0
693 687 694 0
-694 0
-695 687 -696 0
695 -687 -696 0
696 -687 -695 0
695 687 696 0
-696 0
697 698 0
699 698 0
700 698 0
701 698 0
702 698 0
703 698 0
704 698 0
-705 0
-48 698 -706 0
48 -698 -706 0
706 -698 -48 0
48 698 706 0
-706 0
699 707 0
700 707 0
701 707 0
702 707 0
703 707 0
704 707 0
-708 0
-709 707 -710 0
709 -707 -710 0
710 -707 -709 0
709 707 710 0
-710 0
700 711 0
701 711 0
702 711 0
703 711 0
704 711 0
-712 0
-713 711 -714 0
713 -711 -714 0
714 -711 -713 0
713 711 714 0
-714 0
701 715 0
702 715 0
703 715 0
704 715 0
-716 0
-717 715 -718 0
717 -715 -718 0
718 -715 -717 0
717 715 718 0
-718 0
702 719 0
703 719 0
704 719 0
-702 -703 -704 -719 0
-720 719 -721 0
720 -719 -721 0
721 -719 -720 0
720 719 721 0
-721 0
-722 719 -723 0
722 -719 -723 0
723 -719 -722 0
722 719 723 0
-723 0
-724 719 -725 0
724 -719 -725 0
725 -719 -724 0
724 719 725 0
-725 0
726 727 0
727 -728 0
-726 728 -727 0
49 -727 0
-49 727 0
729 730 0
-731 730 0
-729 731 -730 0
51 -730 0
-51 730 0
732 733 0
733 -734 0
-732 734 -733 0
52 -733 0
-52 733 0
735 736 0
736 -737 0
-735 737 -736 0
57 -736 0
-57 736 0
738 739 0
-740 739 0
-738 740 -739 0
59 -739 0
-59 739 0
741 742 0
-743 742 0
-741 743 -742 0
60 -742 0
-60 742 0
744 745 0
745 -746 0
-744 746 -745 0
61 -745 0
-61 745 0
747 748 0
748 -749 0
-747 749 -748 0
62 -748 0
-62 748 0
750 751 0
-752 751 0
-750 752 -751 0
63 -751 0
-63 751 0
753 754 0
-755 754 0
-753 755 -754 0
78 -754 0
-78 754 0
756 757 0
-758 757 0
-756 758 -757 0
81 -757 0
-81 757 0
759 760 0
760 -761 0
-759 761 -760 0
83 -760 0
-83 760 0
762 763 0
-764 763 0
-762 764 -763 0
84 -763 0
-84 763 0
765 766 0
-767 766 0
-765 767 -766 0
85 -766 0
-85 766 0
768 769 0
769 -770 0
-768 770 -769 0
86 -769 0
-86 769 0
771 772 0
-773 772 0
-771 773 -772 0
87 -772 0
-87 772 0
774 775 0
-776 775 0
-774 776 -775 0
105 -775 0
-105 775 0
777 778 0
-779 778 0
-777 779 -778 0
109 -778 0
-109 778 0
780 781 0
-782 781 0
-780 782 -781 0
110 -781 0
-110 781 0
783 784 0
784 -785 0
-783 785 -784 0
111 -784 0
-111 784 0
786 787 0
-788 787 0
-786 788 -787 0
123 -787 0
-123 787 0
789 790 0
-791 790 0
-789 791 -790 0
127 -790 0
-127 790 0
792 793 0
-794 793 0
-792 794 -793 0
128 -793 0
-128 793 0
795 796 0
796 -797 0
-795 797 -796 0
134 -796 0
-134 796 0
798 799 0
-800 799 0
-798 800 -799 0
135 -799 0
-135 799 0
801 802 0
-803 802 0
-801 803 -802 0
142 -802 0
-142 802 0
804 805 0
-806 805 0
-804 806 -805 0
144 -805 0
-144 805 0
807 808 0
808 -809 0
-807 809 -808 0
145 -808 0
-145 808 0
810 811 0
-812 811 0
-810 812 -811 0
146 -811 0
-146 811 0
813 814 0
814 -815 0
-813 815 -814 0
147 -814 0
-147 814 0
816 817 0
817 -818 0
-816 818 -817 0
162 -817 0
-162 817 0
819 820 0
-821 820 0
-819 821 -820 0
163 -820 0
-163 820 0
822 823 0
-824 823 0
-822 824 -823 0
171 -823 0
-171 823 0
825 826 0
-827 826 0
-825 827 -826 0
172 -826 0
-172 826 0
828 829 0
829 -830 0
-828 830 -829 0
178 -829 0
-178 829 0
831 832 0
-833 832 0
-831 833 -832 0
180 -832 0
-180 832 0
834 835 0
835 -836 0
-834 836 -835 0
181 -835 0
-181 835 0
837 838 0
838 -839 0
-837 839 -838 0
182 -838 0
-182 838 0
840 841 0
-842 841 0
-840 842 -841 0
183 -841 0
-183 841 0
843 844 0
844 -845 0
-843 845 -844 0
184 -844 0
-184 844 0
846 847 0
-848 847 0
-846 848 -847 0
201 -847 0
-201 847 0
849 850 0
850 -851 0
-849 851 -850 0
203 -850 0
-203 850 0
852 853 0
-854 853 0
-852 854 -853 0
204 -853 0
-204 853 0
855 856 0
-857 856 0
-855 857 -856 0
205 -856 0
-205 856 0
858 859 0
-860 859 0
-858 860 -859 0
206 -859 0
-206 859 0
861 862 0
862 -863 0
-861 863 -862 0
207 -862 0
-207 862 0
864 865 0
-866 865 0
-864 866 -865 0
226 -865 0
-226 865 0
867 868 0
868 -869 0
-867 869 -868 0
227 -868 0
-227 868 0
870 871 0
-872 871 0
-870 872 -871 0
235 -871 0
-235 871 0
873 874 0
874 -875 0
-873 875 -874 0
239 -874 0
-239 874 0
876 877 0
-878 877 0
-876 878 -877 0
243 -877 0
-243 877 0
879 880 0
-881 880 0
-879 881 -880 0
247 -880 0
-247 880 0
882 883 0
-884 883 0
-882 884 -883 0
248 -883 0
-248 883 0
885 886 0
886 -887 0
-885 887 -886 0
249 -886 0
-249 886 0
888 889 0
-890 889 0
-888 890 -889 0
260 -889 0
-260 889 0
891 892 0
892 -893 0
-891 893 -892 0
262 -892 0
-262 892 0
894 895 0
895 -896 0
-894 896 -895 0
263 -895 0
-263 895 0
897 898 0
898 -899 0
-897 899 -898 0
264 -898 0
-264 898 0
900 901 0
901 -902 0
-900 902 -901 0
265 -901 0
-265 901 0
903 904 0
-905 904 0
-903 905 -904 0
266 -904 0
-266 904 0
906 907 0
907 -908 0
-906 908 -907 0
283 -907 0
-283 907 0
909 910 0
-911 910 0
-909 911 -910 0
285 -910 0
-285 910 0
912 913 0
913 -914 0
-912 914 -913 0
286 -913 0
-286 913 0
915 916 0
-917 916 0
-915 917 -916 0
287 -916 0
-287 916 0
918 919 0
-920 919 0
-918 920 -919 0
288 -919 0
-288 919 0
921 922 0
-923 922 0
-921 923 -922 0
289 -922 0
-289 922 0
924 925 0
-926 925 0
-924 926 -925 0
308 -925 0
-308 925 0
927 928 0
928 -929 0
-927 929 -928 0
310 -928 0
-310 928 0
930 931 0
-932 931 0
-930 932 -931 0
311 -931 0
-311 931 0
933 934 0
-935 934 0
-933 935 -934 0
312 -934 0
-312 934 0
936 937 0
-938 937 0
-936 938 -937 0
313 -937 0
-313 937 0
939 940 0
940 -941 0
-939 941 -940 0
314 -940 0
-314 940 0
942 943 0
-944 943 0
-942 944 -943 0
332 -943 0
-332 943 0
945 946 0
-947 946 0
-945 947 -946 0
334 -946 0
-334 946 0
948 949 0
949 -950 0
-948 950 -949 0
335 -949 0
-335 949 0
951 952 0
-953 952 0
-951 953 -952 0
336 -952 0
-336 952 0
954 955 0
-956 955 0
-954 956 -955 0
337 -955 0
-337 955 0
957 958 0
958 -959 0
-957 959 -958 0
338 -958 0
-338 958 0
960 961 0
-962 961 0
-960 962 -961 0
339 -961 0
-339 961 0
963 964 0
-965 964 0
-963 965 -964 0
340 -964 0
-340 964 0
966 967 0
-968 967 0
-966 968 -967 0
366 -967 0
-366 967 0
969 970 0
-971 970 0
-969 971 -970 0
367 -970 0
-367 970 0
972 973 0
-974 973 0
-972 974 -973 0
373 -973 0
-373 973 0
975 976 0
-977 976 0
-975 977 -976 0
375 -976 0
-375 976 0
978 979 0
-980 979 0
-978 980 -979 0
376 -979 0
-376 979 0
981 982 0
-983 982 0
-981 983 -982 0
377 -982 0
-377 982 0
984 985 0
985 -986 0
-984 986 -985 0
378 -985 0
-378 985 0
987 988 0
988 -989 0
-987 989 -988 0
392 -988 0
-392 988 0
990 991 0
991 -992 0
-990 992 -991 0
394 -991 0
-394 991 0
993 994 0
-995 994 0
-993 995 -994 0
395 -994 0
-395 994 0
996 997 0
-998 997 0
-996 998 -997 0
396 -997 0
-396 997 0
999 1000 0
-1001 1000 0
-999 1001 -1000 0
397 -1000 0
-397 1000 0
1002 1003 0
-1004 1003 0
-1002 1004 -1003 0
412 -1003 0
-412 1003 0
1005 1006 0
-1007 1006 0
-1005 1007 -1006 0
414 -1006 0
-414 1006 0
1008 1009 0
-1010 1009 0
-1008 1010 -1009 0
415 -1009 0
-415 1009 0
1011 1012 0
-1013 1012 0
-1011 1013 -1012 0
416 -1012 0
-416 1012 0
1014 1015 0
-1016 1015 0
-1014 1016 -1015 0
417 -1015 0
-417 1015 0
1017 1018 0
-1019 1018 0
-1017 1019 -1018 0
432 -1018 0
-432 1018 0
1020 1021 0
-1022 1021 0
-1020 1022 -1021 0
433 -1021 0
-433 1021 0
1023 1024 0
1024 -1025 0
-1023 1025 -1024 0
439 -1024 0
-439 1024 0
1026 1027 0
-1028 1027 0
-1026 1028 -1027 0
441 -1027 0
-441 1027 0
1029 1030 0
-1031 1030 0
-1029 1031 -1030 0
442 -1030 0
-442 1030 0
1032 1033 0
1033 -1034 0
-1032 1034 -1033 0
443 -1033 0
-443 1033 0
1035 1036 0
-1037 1036 0
-1035 1037 -1036 0
444 -1036 0
-444 1036 0
1038 1039 0
-1040 1039 0
-1038 1040 -1039 0
458 -1039 0
-458 1039 0
1041 1042 0
1042 -1043 0
-1041 1043 -1042 0
460 -1042 0
-460 1042 0
1044 1045 0
-1046 1045 0
-1044 1046 -1045 0
461 -1045 0
-461 1045 0
1047 1048 0
-1049 1048 0
-1047 1049 -1048 0
462 -1048 0
-462 1048 0
1050 1051 0
-1052 1051 0
-1050 1052 -1051 0
463 -1051 0
-463 1051 0
1053 1054 0
-1055 1054 0
-1053 1055 -1054 0
464 -1054 0
-464 1054 0
1056 1057 0
-1058 1057 0
-1056 1058 -1057 0
482 -1057 0
-482 1057 0
1059 1060 0
-1061 1060 0
-1059 1061 -1060 0
484 -1060 0
-484 1060 0
1062 1063 0
-1064 1063 0
-1062 1064 -1063 0
485 -1063 0
-485 1063 0
1065 1066 0
-1067 1066 0
-1065 1067 -1066 0
486 -1066 0
-486 1066 0
1068 1069 0
-1070 1069 0
-1068 1070 -1069 0
487 -1069 0
-487 1069 0
1071 1072 0
-1073 1072 0
-1071 1073 -1072 0
501 -1072 0
-501 1072 0
1074 1075 0
-1076 1075 0
-1074 1076 -1075 0
503 -1075 0
-503 1075 0
1077 1078 0
-1079 1078 0
-1077 1079 -1078 0
504 -1078 0
-504 1078 0
1080 1081 0
-1082 1081 0
-1080 1082 -1081 0
510 -1081 0
-510 1081 0
1083 1084 0
-1085 1084 0
-1083 1085 -1084 0
512 -1084 0
-512 1084 0
1086 1087 0
1087 -1088 0
-1086 1088 -1087 0
513 -1087 0
-513 1087 0
1089 1090 0
1090 -1091 0
-1089 1091 -1090 0
514 -1090 0
-514 1090 0
1092 1093 0
-1094 1093 0
-1092 1094 -1093 0
515 -1093 0
-515 1093 0
1095 1096 0
-1097 1096 0
-1095 1097 -1096 0
516 -1096 0
-516 1096 0
1098 1099 0
-1100 1099 0
-1098 1100 -1099 0
517 -1099 0
-517 1099 0
1101 1102 0
-1103 1102 0
-1101 1103 -1102 0
518 -1102 0
-518 1102 0
1104 1105 0
-1106 1105 0
-1104 1106 -1105 0
543 -1105 0
-543 1105 0
1107 1108 0
-1109 1108 0
-1107 1109 -1108 0
545 -1108 0
-545 1108 0
1110 1111 0
-1112 1111 0
-1110 1112 -1111 0
546 -1111 0
-546 1111 0
1113 1114 0
-1115 1114 0
-1113 1115 -1114 0
547 -1114 0
-547 1114 0
1116 1117 0
1117 -1118 0
-1116 1118 -1117 0
548 -1117 0
-548 1117 0
1119 1120 0
1120 -1121 0
-1119 1121 -1120 0
549 -1120 0
-549 1120 0
1122 1123 0
-1124 1123 0
-1122 1124 -1123 0
567 -1123 0
-567 1123 0
1125 1126 0
-1127 1126 0
-1125 1127 -1126 0
569 -1126 0
-569 1126 0
1128 1129 0
1129 -1130 0
-1128 1130 -1129 0
570 -1129 0
-570 1129 0
1131 1132 0
-1133 1132 0
-1131 1133 -1132 0
571 -1132 0
-571 1132 0
1134 1135 0
-1136 1135 0
-1134 1136 -1135 0
582 -1135 0
-582 1135 0
1137 1138 0
-1139 1138 0
-1137 1139 -1138 0
584 -1138 0
-584 1138 0
1140 1141 0
1141 -1142 0
-1140 1142 -1141 0
585 -1141 0
-585 1141 0
1143 1144 0
1144 -1145 0
-1143 1145 -1144 0
592 -1144 0
-592 1144 0
1146 1147 0
1147 -1148 0
-1146 1148 -1147 0
594 -1147 0
-594 1147 0
1149 1150 0
-1151 1150 0
-1149 1151 -1150 0
595 -1150 0
-595 1150 0
1152 1153 0
-1154 1153 0
-1152 1154 -1153 0
596 -1153 0
-596 1153 0
1155 1156 0
1156 -1157 0
-1155 1157 -1156 0
607 -1156 0
-607 1156 0
1158 1159 0
1159 -1160 0
-1158 1160 -1159 0
609 -1159 0
-609 1159 0
1161 1162 0
-1163 1162 0
-1161 1163 -1162 0
610 -1162 0
-610 1162 0
1164 1165 0
-1166 1165 0
-1164 1166 -1165 0
611 -1165 0
-611 1165 0
1167 1168 0
-1169 1168 0
-1167 1169 -1168 0
612 -1168 0
-612 1168 0
1170 1171 0
-1172 1171 0
-1170 1172 -1171 0
613 -1171 0
-613 1171 0
1173 1174 0
-1175 1174 0
-1173 1175 -1174 0
614 -1174 0
-614 1174 0
1176 1177 0
-1178 1177 0
-1176 1178 -1177 0
635 -1177 0
-635 1177 0
1179 1180 0
-1181 1180 0
-1179 1181 -1180 0
637 -1180 0
-637 1180 0
1182 1183 0
-1184 1183 0
-1182 1184 -1183 0
638 -1183 0
-638 1183 0
1185 1186 0
-1187 1186 0
-1185 1187 -1186 0
639 -1186 0
-639 1186 0
1188 1189 0
-1190 1189 0
-1188 1190 -1189 0
640 -1189 0
-640 1189 0
1191 1192 0
-1193 1192 0
-1191 1193 -1192 0
655 -1192 0
-655 1192 0
1194 1195 0
-1196 1195 0
-1194 1196 -1195 0
657 -1195 0
-657 1195 0
1197 1198 0
-1199 1198 0
-1197 1199 -1198 0
659 -1198 0
-659 1198 0
1200 1201 0
-1202 1201 0
-1200 1202 -1201 0
666 -1201 0
-666 1201 0
1203 1204 0
-1205 1204 0
-1203 1205 -1204 0
667 -1204 0
-667 1204 0
1206 1207 0
1207 -1208 0
-1206 1208 -1207 0
674 -1207 0
-674 1207 0
1209 1210 0
-1211 1210 0
-1209 1211 -1210 0
676 -1210 0
-676 1210 0
1212 1213 0
-1214 1213 0
-1212 1214 -1213 0
677 -1213 0
-677 1213 0
1215 1216 0
-1217 1216 0
-1215 1217 -1216 0
678 -1216 0
-678 1216 0
1218 1219 0
-1220 1219 0
-1218 1220 -1219 0
679 -1219 0
-679 1219 0
1221 1222 0
-1223 1222 0
-1221 1223 -1222 0
680 -1222 0
-680 1222 0
1224 1225 0
1225 -1226 0
-1224 1226 -1225 0
697 -1225 0
-697 1225 0
1227 1228 0
1228 -1229 0
-1227 1229 -1228 0
699 -1228 0
-699 1228 0
1230 1231 0
-1232 1231 0
-1230 1232 -1231 0
700 -1231 0
-700 1231 0
1233 1234 0
-1235 1234 0
-1233 1235 -1234 0
701 -1234 0
-701 1234 0
1236 1237 0
-1238 1237 0
-1236 1238 -1237 0
702 -1237 0
-702 1237 0
1239 1240 0
1240 -1241 0
-1239 1241 -1240 0
703 -1240 0
-703 1240 0
1242 1243 0
-1244 1243 0
-1242 1244 -1243 0
704 -1243 0
-704 1243 0
726 0
-729 0
732 0
735 0
-738 0
-741 0
744 0
747 0
-750 0
-753 0
-756 0
759 0
-762 0
-765 0
768 0
-771 0
-774 0
-777 0
-780 0
783 0
-786 0
-789 0
-792 0
795 0
-798 0
-801 0
-804 0
807 0
-810 0
813 0
816 0
-819 0
-822 0
-825 0
828 0
-831 0
834 0
837 0
-840 0
843 0
-846 0
849 0
-852 0
-855 0
-858 0
861 0
-864 0
867 0
-870 0
873 0
-876 0
-879 0
-882 0
885 0
888 0
891 0
894 0
897 0
900 0
-903 0
906 0
-909 0
912 0
-915 0
-918 0
921 0
-924 0
927 0
930 0
-933 0
-936 0
939 0
-942 0
-945 0
948 0
-951 0
-954 0
957 0
-960 0
963 0
966 0
969 0
-972 0
-975 0
978 0
-981 0
984 0
987 0
990 0
-993 0
996 0
-999 0
-1002 0
1005 0
1008 0
-1011 0
-1014 0
-1017 0
1020 0
1023 0
-1026 0
1029 0
1032 0
-1035 0
-1038 0
1041 0
-1044 0
-1047 0
1050 0
1053 0
1056 0
-1059 0
-1062 0
-1065 0
1068 0
-1071 0
-1074 0
1077 0
-1080 0
1083 0
1086 0
1089 0
-1092 0
-1095 0
-1098 0
-1101 0
-1104 0
-1107 0
1110 0
-1113 0
1116 0
1119 0
-1122 0
1125 0
1128 0
-1131 0
-1134 0
1137 0
1140 0
1143 0
1146 0
-1149 0
-1152 0
1155 0
1158 0
-1161 0
-1164 0
-1167 0
1170 0
1173 0
-1176 0
1179 0
-1182 0
1185 0
-1188 0
1191 0
1194 0
-1197 0
-1200 0
1203 0
1206 0
-1209 0
-1212 0
-1215 0
-1218 0
1221 0
1224 0
1227 0
-1230 0
-1233 0
-1236 0
1239 0
1242 0
-1245 -1246 0
728 -1245 0
731 -1245 0
734 -1245 0
737 -1245 0
740 -1245 0
743 -1245 0
746 -1245 0
749 -1245 0
752 -1245 0
-1245 -755 0
758 -1245 0
761 -1245 0
764 -1245 0
767 -1245 0
770 -1245 0
773 -1245 0
-1245 -776 0
779 -1245 0
-1245 -782 0
785 -1245 0
788 -1245 0
791 -1245 0
-1245 -794 0
797 -1245 0
800 -1245 0
-1245 -803 0
-1245 -806 0
809 -1245 0
812 -1245 0
815 -1245 0
818 -1245 0
821 -1245 0
824 -1245 0
827 -1245 0
830 -1245 0
833 -1245 0
836 -1245 0
839 -1245 0
842 -1245 0
845 -1245 0
848 -1245 0
851 -1245 0
854 -1245 0
857 -1245 0
860 -1245 0
863 -1245 0
866 -1245 0
869 -1245 0
-1245 -872 0
875 -1245 0
-1245 -878 0
-1245 -881 0
884 -1245 0
887 -1245 0
-1245 -890 0
893 -1245 0
896 -1245 0
899 -1245 0
902 -1245 0
-1245 -905 0
908 -1245 0
911 -1245 0
914 -1245 0
-1245 -917 0
-1245 -920 0
-1245 -923 0
-1245 -926 0
929 -1245 0
-1245 -932 0
-1245 -935 0
-1245 -938 0
941 -1245 0
-1245 -944 0
-1245 -947 0
950 -1245 0
-1245 -953 0
-1245 -956 0
959 -1245 0
-1245 -962 0
-1245 -965 0
-1245 -968 0
-1245 -971 0
974 -1245 0
977 -1245 0
-1245 -980 0
-1245 -983 0
986 -1245 0
989 -1245 0
992 -1245 0
-1245 -995 0
-1245 -998 0
1001 -1245 0
1004 -1245 0
-1245 -1007 0
-1245 -1010 0
1013 -1245 0
-1245 -1016 0
-1245 -1019 0
-1245 -1022 0
1025 -1245 0
-1245 -1028 0
-1245 -1031 0
1034 -1245 0
1037 -1245 0
-1245 -1040 0
1043 -1245 0
-1245 -1046 0
1049 -1245 0
-1245 -1052 0
-1245 -1055 0
-1245 -1058 0
1061 -1245 0
-1245 -1064 0
1067 -1245 0
-1245 -1070 0
-1245 -1073 0
1076 -1245 0
-1245 -1079 0
1082 -1245 0
-1245 -1085 0
1088 -1245 0
1091 -1245 0
1094 -1245 0
1097 -1245 0
-1245 -1100 0
1103 -1245 0
-1245 -1106 0
-1245 -1109 0
-1245 -1112 0
-1245 -1115 0
1118 -1245 0
1121 -1245 0
1124 -1245 0
-1245 -1127 0
1130 -1245 0
-1245 -1133 0
-1245 -1136 0
-1245 -1139 0
1142 -1245 0
1145 -1245 0
1148 -1245 0
-1245 -1151 0
1154 -1245 0
1157 -1245 0
1160 -1245 0
-1245 -1163 0
1166 -1245 0
1169 -1245 0
-1245 -1172 0
-1245 -1175 0
1178 -1245 0
-1245 -1181 0
1184 -1245 0
-1245 -1187 0
-1245 -1190 0
-1245 -1193 0
-1245 -1196 0
1199 -1245 0
1202 -1245 0
-1245 -1205 0
1208 -1245 0
1211 -1245 0
-1245 -1214 0
-1245 -1217 0
-1245 -1220 0
-1245 -1223 0
1226 -1245 0
1229 -1245 0
1232 -1245 0
-1245 -1235 0
1238 -1245 0
1241 -1245 0
-1245 -1244 0
728 -1246 0
-1246 -731 0
734 -1246 0
737 -1246 0
-1246 -740 0
-1246 -743 0
746 -1246 0
749 -1246 0
-1246 -752 0
-1246 -755 0
-1246 -758 0
761 -1246 0
-1246 -764 0
-1246 -767 0
770 -1246 0
-1246 -773 0
-1246 -776 0
-1246 -779 0
-1246 -782 0
785 -1246 0
-1246 -788 0
-1246 -791 0
-1246 -794 0
797 -1246 0
-1246 -800 0
-1246 -803 0
-1246 -806 0
809 -1246 0
-1246 -812 0
815 -1246 0
818 -1246 0
-1246 -821 0
-1246 -824 0
-1246 -827 0
830 -1246 0
-1246 -833 0
836 -1246 0
839 -1246 0
-1246 -842 0
845 -1246 0
-1246 -848 0
851 -1246 0
-1246 -854 0
-1246 -857 0
-1246 -860 0
863 -1246 0
-1246 -866 0
869 -1246 0
-1246 -872 0
875 -1246 0
-1246 -878 0
-1246 -881 0
-1246 -884 0
887 -1246 0
890 -1246 0
893 -1246 0
896 -1246 0
899 -1246 0
902 -1246 0
-1246 -905 0
908 -1246 0
-1246 -911 0
914 -1246 0
-1246 -917 0
-1246 -920 0
923 -1246 0
-1246 -926 0
929 -1246 0
932 -1246 0
-1246 -935 0
-1246 -938 0
941 -1246 0
-1246 -944 0
-1246 -947 0
950 -1246 0
-1246 -953 0
-1246 -956 0
959 -1246 0
-1246 -962 0
965 -1246 0
968 -1246 0
971 -1246 0
-1246 -974 0
-1246 -977 0
980 -1246 0
-1246 -983 0
986 -1246 0
989 -1246 0
992 -1246 0
-1246 -995 0
998 -1246 0
-1246 -1001 0
-1246 -1004 0
1007 -1246 0
1010 -1246 0
-1246 -1013 0
-1246 -1016 0
-1246 -1019 0
1022 -1246 0
1025 -1246 0
-1246 -1028 0
1031 -1246 0
1034 -1246 0
-1246 -1037 0
-1246 -1040 0
1043 -1246 0
-1246 -1046 0
-1246 -1049 0
1052 -1246 0
1055 -1246 0
1058 -1246 0
-1246 -1061 0
-1246 -1064 0
-1246 -1067 0
1070 -1246 0
-1246 -1073 0
-1246 -1076 0
1079 -1246 0
-1246 -1082 0
1085 -1246 0
1088 -1246 0
1091 -1246 0
-1246 -1094 0
-1246 -1097 0
-1246 -1100 0
-1246 -1103 0
-1246 -1106 0
-1246 -1109 0
1112 -1246 0
-1246 -1115 0
1118 -1246 0
1121 -1246 0
-1246 -1124 0
1127 -1246 0
1130 -1246 0
-1246 -1133 0
-1246 -1136 0
1139 -1246 0
1142 -1246 0
1145 -1246 0
1148 -1246 0
-1246 -1151 0
-1246 -1154 0
1157 -1246 0
1160 -1246 0
-1246 -1163 0
-1246 -1166 0
-1246 -1169 0
1172 -1246 0
1175 -1246 0
-1246 -1178 0
1181 -1246 0
-1246 -1184 0
1187 -1246 0
-1246 -1190 0
1193 -1246 0
1196 -1246 0
-1246 -1199 0
-1246 -1202 0
1205 -1246 0
1208 -1246 0
-1246 -1211 0
-1246 -1214 0
-1246 -1217 0
-1246 -1220 0
1223 -1246 0
1226 -1246 0
1229 -1246 0
-1246 -1232 0
-1246 -1235 0
-1246 -1238 0
1241 -1246 0
1244 -1246 0
1245 1246 0
-1247 0
-1248 0
-1249 0
-1250 0
-1251 0
-1252 0
-1253 0
-1254 0
